Minimize
 obj: 0
Subject to

\true constraints
X1X1
 + X1X2
 + X1X3
 + X1X4
 + X1X5
= 1

X2X1
 + X2X2
 + X2X3
 + X2X4
 + X2X5
= 1

X3X1
 + X3X2
 + X3X3
 + X3X4
 + X3X5
= 1

X4X1
 + X4X2
 + X4X3
 + X4X4
 + X4X5
= 1

X5X1
 + X5X2
 + X5X3
 + X5X4
 + X5X5
= 1

X1X1
 + X2X1
 + X3X1
 + X4X1
 + X5X1
= 1

X1X2
 + X2X2
 + X3X2
 + X4X2
 + X5X2
= 1

X1X3
 + X2X3
 + X3X3
 + X4X3
 + X5X3
= 1

X1X4
 + X2X4
 + X3X4
 + X4X4
 + X5X4
= 1

X1X5
 + X2X5
 + X3X5
 + X4X5
 + X5X5
= 1

\multiple objectives
    9 X1X1
 +    10 X1X2
 +     4 X1X3
 +    14 X1X4
 +     0 X1X5
 +    17 X2X1
 +    13 X2X2
 +     3 X2X3
 +    10 X2X4
 +    16 X2X5
 +     2 X3X1
 +     7 X3X2
 +     0 X3X3
 +     4 X3X4
 +     4 X3X5
 +     5 X4X1
 +    15 X4X2
 +     8 X4X3
 +     3 X4X4
 +    13 X4X5
 +    13 X5X1
 +    13 X5X2
 +    16 X5X3
 +    19 X5X4
 +     3 X5X5
< 1

    0 X1X1
 +    13 X1X2
 +     3 X1X3
 +     6 X1X4
 +    14 X1X5
 +    17 X2X1
 +    14 X2X2
 +    12 X2X3
 +     5 X2X4
 +     1 X2X5
 +    15 X3X1
 +    18 X3X2
 +    19 X3X3
 +     0 X3X4
 +    17 X3X5
 +    19 X4X1
 +    17 X4X2
 +     2 X4X3
 +     8 X4X4
 +    16 X4X5
 +     1 X5X1
 +     5 X5X2
 +    19 X5X3
 +     8 X5X4
 +    11 X5X5
< 2

   17 X1X1
 +    11 X1X2
 +    11 X1X3
 +     4 X1X4
 +    17 X1X5
 +    16 X2X1
 +     9 X2X2
 +    18 X2X3
 +     5 X2X4
 +    18 X2X5
 +    14 X3X1
 +     5 X3X2
 +     0 X3X3
 +     3 X3X4
 +     3 X3X5
 +     0 X4X1
 +     8 X4X2
 +     5 X4X3
 +     7 X4X4
 +    15 X4X5
 +    10 X5X1
 +     1 X5X2
 +     5 X5X3
 +     2 X5X4
 +    13 X5X5
< 3

   18 X1X1
 +    11 X1X2
 +     0 X1X3
 +     8 X1X4
 +    17 X1X5
 +    12 X2X1
 +     8 X2X2
 +     9 X2X3
 +    14 X2X4
 +     8 X2X5
 +    11 X3X1
 +     7 X3X2
 +    10 X3X3
 +     0 X3X4
 +     2 X3X5
 +    19 X4X1
 +    15 X4X2
 +     3 X4X3
 +    15 X4X4
 +    17 X4X5
 +    13 X5X1
 +    17 X5X2
 +     1 X5X3
 +     8 X5X4
 +     2 X5X5
< 4

   10 X1X1
 +     0 X1X2
 +     5 X1X3
 +    15 X1X4
 +     2 X1X5
 +     1 X2X1
 +     0 X2X2
 +     0 X2X3
 +    11 X2X4
 +    19 X2X5
 +     2 X3X1
 +     6 X3X2
 +     0 X3X3
 +    13 X3X4
 +    18 X3X5
 +     4 X4X1
 +    19 X4X2
 +     9 X4X3
 +    17 X4X4
 +     6 X4X5
 +     4 X5X1
 +    16 X5X2
 +     5 X5X3
 +     6 X5X4
 +    11 X5X5
< 5

   15 X1X1
 +     7 X1X2
 +    18 X1X3
 +     1 X1X4
 +    15 X1X5
 +     7 X2X1
 +    17 X2X2
 +    11 X2X3
 +     6 X2X4
 +     8 X2X5
 +    15 X3X1
 +    15 X3X2
 +    11 X3X3
 +    16 X3X4
 +     6 X3X5
 +    10 X4X1
 +    15 X4X2
 +    17 X4X3
 +     9 X4X4
 +    16 X4X5
 +    16 X5X1
 +    17 X5X2
 +     8 X5X3
 +    12 X5X4
 +     8 X5X5
< 6

BINARY
X1X1
X1X2
X1X3
X1X4
X1X5
X2X1
X2X2
X2X3
X2X4
X2X5
X3X1
X3X2
X3X3
X3X4
X3X5
X4X1
X4X2
X4X3
X4X4
X4X5
X5X1
X5X2
X5X3
X5X4
X5X5
END
